 Run started: Fri, 10 Feb 2017 14:47:46 +0000

 Atomic calculation performed for Al: 1s2 2s2 2p6 3s2 3p1

 Converged in 55 iterations to an ae energy of -6578.725 eV

   | Pseudopotential Report - Date of generation 10-02-2017   |
   | Element: Al Ionic charge:  3.00 Level of theory: LDA     |
   | Atomic Solver: Koelling-Harmon                           |
   |               Reference Electronic Structure             |
   |         Orbital         Occupation         Energy        |
   |            3s              2.000           -0.288        |
   |            3p              1.000           -0.102        |
   |                 Pseudopotential Definition               |
   |        Beta     l      e      Rc     scheme   norm       |
   |          1      0   -0.288   2.000     qc      0         |
   |          2      0    0.250   2.000     qc      0         |
   |          3      1   -0.102   2.000     qc      0         |
   |          4      1    0.250   2.000     qc      0         |
   |          5      2    0.000   2.000     qc      0         |
   |          6      2    0.250   2.000     qc      0         |
   |         loc     3    0.000   2.000     pn      0         |
   | Augmentation charge Rinner = 1.398                       |
   | Partial core correction Rc = 1.398                       |
   | "3|2.0|4|4|5|30:31:32"                                   |
   |      Author: Chris J. Pickard, Cambridge University      |

 Pseudo atomic calculation performed for Al 3s2 3p1

 Converged in 15 iterations to a total energy of -105.5956 eV

 Calculation parallelised over 4 processes.
 Data is distributed by k-point(4-way)

 ************************************ Title ************************************

 ***************************** General Parameters ******************************

 output verbosity                               : normal  (1)
 write checkpoint data to                       : Al.check
 type of calculation                            : single point energy
 stress calculation                             : off
 density difference calculation                 : off
 electron localisation func (ELF) calculation   : off
 Hirshfeld analysis                             : off
 unlimited duration calculation
 timing information                             : on
 write final potential to formatted file        : off
 write final density to formatted file          : off
 write BibTeX reference list                    : on
 write OTFG pseudopotential files               : on
 checkpoint writing                             : both castep_bin and check files

 output         length unit                     : A
 output           mass unit                     : amu
 output           time unit                     : ps
 output         charge unit                     : e
 output           spin unit                     : hbar/2
 output         energy unit                     : eV
 output          force unit                     : eV/A
 output       velocity unit                     : A/ps
 output       pressure unit                     : GPa
 output     inv_length unit                     : 1/A
 output      frequency unit                     : cm-1
 output force constant unit                     : eV/A**2
 output         volume unit                     : A**3
 output   IR intensity unit                     : (D/A)**2/amu
 output         dipole unit                     : D
 output         efield unit                     : eV/A/e
 output        entropy unit                     : J/mol/K

 wavefunctions paging                           : none
 random number generator seed                   : randomised (144746939)
 data distribution                              : optimal for this architecture
 optimization strategy                          : maximize speed(+++)

 *********************** Exchange-Correlation Parameters ***********************

 using functional                               : Local Density Approximation
 relativistic treatment                         : Koelling-Harmon
 DFT+D: Semi-empirical dispersion correction    : off

 ************************* Pseudopotential Parameters **************************

 pseudopotential representation                 : reciprocal space
 <beta|phi> representation                      : reciprocal space
 spin-orbit coupling                            : off

 **************************** Basis Set Parameters *****************************

 plane wave basis set cut-off                   :   750.0000   eV
 size of standard grid                          :     1.7500
 size of   fine   gmax                          :    24.5532   1/A
 finite basis set correction                    : none

 **************************** Electronic Parameters ****************************

 number of  electrons                           :  12.00
 net charge of system                           :  0.000
 treating system as non-spin-polarized
 number of bands                                :         10

 ********************* Electronic Minimization Parameters **********************

 Method: Treating system as metallic with density mixing treatment of electrons,
         and number of  SD  steps               :          1
         and number of  CG  steps               :          4

 total energy / atom convergence tol.           : 0.1000E-04   eV
 eigen-energy convergence tolerance             : 0.1000E-05   eV
 max force / atom convergence tol.              : ignored
 convergence tolerance window                   :          3   cycles
 max. number of SCF cycles                      :        200
 number of fixed-spin iterations                :         10
 smearing scheme                                : Gaussian
 smearing width                                 : 0.2000       eV
 Fermi energy convergence tolerance             : 0.2721E-13   eV
 periodic dipole correction                     : NONE

 ************************** Density Mixing Parameters **************************

 density-mixing scheme                          : Broyden
 max. length of mixing history                  :         20
 charge density mixing amplitude                : 0.8000
 cut-off energy for mixing                      :  750.0       eV

 *********************** Population Analysis Parameters ************************

 Population analysis with cutoff                :  3.000       A

                                      Unit Cell
        Real Lattice(A)                      Reciprocal Lattice(1/A)
   4.0500000   0.0000000   0.0000000        1.5514038   0.0000000   0.0000000
   0.0000000   4.0500000   0.0000000        0.0000000   1.5514038   0.0000000
   0.0000000   0.0000000   4.0500000        0.0000000   0.0000000   1.5514038

                       Lattice parameters(A)       Cell Angles
                    a =    4.050000          alpha =   90.000000
                    b =    4.050000          beta  =   90.000000
                    c =    4.050000          gamma =   90.000000

                       Current cell volume =   66.430125       A**3

                                     Cell Contents
                         Total number of ions in cell =    4
                      Total number of species in cell =    1
                        Max number of any one species =    4

            x  Element    Atom        Fractional coordinates of atoms  x
            x            Number           u          v          w      x
            x  Al           1         0.000000   0.000000   0.000000   x
            x  Al           2         0.500000   0.500000   0.000000   x
            x  Al           3         0.500000   0.000000   0.500000   x
            x  Al           4         0.000000   0.500000   0.500000   x

                         No user defined ionic velocities

                                   Details of Species

                               Mass of species in AMU
                                    Al   26.9815400

                          Electric Quadrupole Moment (Barn)
                                    Al    0.1466000 Isotope 27

                          Files used for pseudopotentials:
                                    Al 3|2.0|4|4|5|30:31:32

                              k-Points For BZ Sampling
                       MP grid size for SCF calculation is  4  4  4
                            with an offset of   0.000  0.000  0.000
                       Number of kpoints used =             4

                               Symmetry and Constraints

                      Cell is a supercell containing 4 primitive cells
                      Maximum deviation from symmetry =  0.00000         ANG

                      Number of symmetry operations   =         192
                      Number of ionic constraints     =           3
                      Point group of crystal =    32: Oh, m-3m, 4/m -3 2/m
                      Space group of crystal =   225: Fm-3m, -F 4 2 3

             Set iprint > 1 for details on symmetry rotations/translations

                         Centre of mass is constrained
             Set iprint > 1 for details of linear ionic constraints

                         Number of cell constraints= 5
                         Cell constraints are:  1 1 1 0 0 0

                         External pressure/stress (GPa)
                          0.00000   0.00000   0.00000
                                    0.00000   0.00000
                                              0.00000

Final energy, E             =  -438.8703356298     eV
Final free energy (E-TS)    =  -438.9652575303     eV
(energies not corrected for finite basis set)

NB est. 0K energy (E-0.5TS)      =  -438.9177965800     eV

Writing analysis data to Al.castep_bin

Writing model to Al.check

 ***************** Symmetrised Forces *****************
 *            Cartesian components (eV/A)             *
 *                   x            y            z      *
 * Al        1      0.00000      0.00000      0.00000 *
 * Al        2      0.00000      0.00000      0.00000 *
 * Al        3      0.00000      0.00000      0.00000 *
 * Al        4      0.00000      0.00000      0.00000 *

[...]

Charge spilling parameter for spin component 1 = 1.98%

     Atomic Populations (Mulliken)
Species   Ion     s      p      d      f     Total  Charge (e)
  Al       1     1.11   1.89   0.00   0.00   3.00     0.00
  Al       2     1.11   1.89   0.00   0.00   3.00     0.00
  Al       3     1.11   1.89   0.00   0.00   3.00     0.00
  Al       4     1.11   1.89   0.00   0.00   3.00     0.00

            Bond              Population      Length (A)
         Al 3 -- Al 4              0.56        2.86378
         Al 2 -- Al 4              0.56        2.86378
         Al 2 -- Al 3              0.56        2.86378
         Al 1 -- Al 4              0.56        2.86378
         Al 1 -- Al 3              0.56        2.86378
         Al 1 -- Al 2              0.56        2.86378

[...]

 A BibTeX formatted list of references used in this run has been written to
 Al.bib

Initialisation time =      7.34 s
Calculation time    =     15.17 s
Finalisation time   =      0.01 s
Total time          =     22.52 s

[...]

[...]

                                     Cell Contents

[...]

------------------------------------------------------------------------ <-- SCF
SCF loop      Energy           Fermi           Energy gain       Timer   <-- SCF
                               energy          per atom          (sec)   <-- SCF
------------------------------------------------------------------------ <-- SCF
Initial  -4.43495418E+002  0.00000000E+000                       418.85  <-- SCF
 |      CCC   AA    SSS  TTTTT  EEEEE  PPPP        |
 |     C     A  A  S       T    E      P   P       |
 |     C     AAAA   SS     T    EEE    PPPP        |
 |     C     A  A     S    T    E      P           |
 |      CCC  A  A  SSS     T    EEEEE  P           |
 | Welcome to Academic Release CASTEP version 16.11|
 | Ab Initio Total Energy Program                  |
 | Authors:                                        |
 | M. Segall, M. Probert, C. Pickard, P. Hasnip,   |
 | S. Clark, K. Refson, J. R. Yates, M. Payne      |
 | Contributors:                                   |
 | P. Lindan, P. Haynes, J. White, V. Milman,      |
 | N. Govind, M. Gibson, P. Tulip, V. Cocula,      |
 | B. Montanari, D. Quigley, M. Glover,            |
 | L. Bernasconi, A. Perlov, M. Plummer,           |
 | E. McNellis, J. Meyer, J. Gale, D. Jochym       |
 | J. Aarons, B. Walker, R. Gillen, D. Jones       |
 | T. Green, I. J. Bush, C. J. Armstrong,          |
 | E. J. Higgins, E. L. Brown, M. S. McFly         |
 | Copyright (c) 2000 - 2015                       |
 |     Distributed under the terms of an           |
 |     Agreement between the United Kingdom        |
 |     Car-Parrinello (UKCP) Consortium,           |
 |     Daresbury Laboratory and Accelrys, Inc.     |
 | Please cite                                     |
 |     "First principles methods using CASTEP"     |
 |         Zeitschrift fuer Kristallographie       |
 |           220(5-6) pp. 567-570 (2005)           |
 | S. J. Clark, M. D. Segall, C. J. Pickard,       |
 | P. J. Hasnip, M. J. Probert, K. Refson,         |
 | M. C. Payne                                     |
 |       in all publications arising from          |
 |              your use of CASTEP                 |

[...]

 density-mixing scheme                          : Linear
 charge density mixing amplitude                : 0.8000
 cut-off energy for mixing                      :  750.0       eV

[...]

Overall parallel efficiency rating: Excellent (94%)

Data was distributed by:-
k-point (4-way); efficiency rating: Excellent (94%)

[...]

Overall parallel efficiency rating: Very good (80%)

Data was distributed by:-
k-point (4-way); efficiency rating: Very good (80%)

[...]

Overall parallel efficiency rating: Excellent (92%)

Data was distributed by:-
k-point (4-way); efficiency rating: Excellent (92%)

[...]

      4  -4.43331899E+002  6.05463591E+000  -5.01656844E-003      14.63  <-- SCF

[...]

------------------------------------------------------------------------ <-- SCF

[...]

      8  -4.43331921E+002  6.05079541E+000  -6.26296967E-007      19.61  <-- SCF

------------------------------------------------------------------------ <-- SCF

[...]

Overall parallel efficiency rating: Satisfactory (66%)

Data was distributed by:-
k-point (4-way); efficiency rating: Satisfactory (66%)

[...]

Overall parallel efficiency rating: Mediocre (59%)

[...]

Overall parallel efficiency rating: Good (74%)

Data was distributed by:-
k-point (4-way); efficiency rating: Good (74%)

[...]

Overall parallel efficiency rating: Satisfactory (64%)

Data was distributed by:-
k-point (4-way); efficiency rating: Satisfactory (64%)

Parallel notes:
1) Calculation only took 25.5 s, so efficiency estimates may be inaccurate.
 |      CCC   AA    SSS  TTTTT  EEEEE  PPPP        |
 |     C     A  A  S       T    E      P   P       |
 |     C     AAAA   SS     T    EEE    PPPP        |
 |     C     A  A     S    T    E      P           |
 |      CCC  A  A  SSS     T    EEEEE  P           |
 | Welcome to Academic Release CASTEP version 16.11|
 | Ab Initio Total Energy Program                  |
 | Authors:                                        |
 | M. Segall, M. Probert, C. Pickard, P. Hasnip,   |
 | S. Clark, K. Refson, J. R. Yates, M. Payne      |
 | Contributors:                                   |
 | P. Lindan, P. Haynes, J. White, V. Milman,      |
 | N. Govind, M. Gibson, P. Tulip, V. Cocula,      |
 | B. Montanari, D. Quigley, M. Glover,            |
 | L. Bernasconi, A. Perlov, M. Plummer,           |
 | E. McNellis, J. Meyer, J. Gale, D. Jochym       |
 | J. Aarons, B. Walker, R. Gillen, D. Jones       |
 | T. Green, I. J. Bush, C. J. Armstrong,          |
 | E. J. Higgins, E. L. Brown, M. S. McFly         |
 | Copyright (c) 2000 - 2015                       |
 |     Distributed under the terms of an           |
 |     Agreement between the United Kingdom        |
 |     Car-Parrinello (UKCP) Consortium,           |
 |     Daresbury Laboratory and Accelrys, Inc.     |
 | Please cite                                     |
 |     "First principles methods using CASTEP"     |
 |         Zeitschrift fuer Kristallographie       |
 |           220(5-6) pp. 567-570 (2005)           |
 | S. J. Clark, M. D. Segall, C. J. Pickard,       |
 | P. J. Hasnip, M. J. Probert, K. Refson,         |
 | M. C. Payne                                     |
 |       in all publications arising from          |
 |              your use of CASTEP                 |

 Run started: Fri, 10 Feb 2017 18:50:14 +0000

 Atomic calculation performed for Al: 1s2 2s2 2p6 3s2 3p1

 Converged in 54 iterations to an ae energy of -6603.782 eV

   | Pseudopotential Report - Date of generation 10-02-2017   |
   | Element: Al Ionic charge:  3.00 Level of theory: PBE     |
   | Atomic Solver: Koelling-Harmon                           |
   |               Reference Electronic Structure             |
   |         Orbital         Occupation         Energy        |
   |            3s              2.000           -0.285        |
   |            3p              1.000           -0.100        |
   |                 Pseudopotential Definition               |
   |        Beta     l      e      Rc     scheme   norm       |
   |          1      0   -0.285   2.000     qc      0         |
   |          2      0    0.250   2.000     qc      0         |
   |          3      1   -0.100   2.000     qc      0         |
   |          4      1    0.250   2.000     qc      0         |
   |          5      2    0.000   2.000     qc      0         |
   |          6      2    0.250   2.000     qc      0         |
   |         loc     3    0.000   2.000     pn      0         |
   | Augmentation charge Rinner = 1.398                       |
   | Partial core correction Rc = 1.398                       |
   | "3|2.0|4|4|5|30:31:32"                                   |
   |      Author: Chris J. Pickard, Cambridge University      |

[...]

 Calculation parallelised over 4 processes.
 Data is distributed by k-point(4-way)

 ************************************ Title ************************************

 ***************************** General Parameters ******************************

 output verbosity                               : normal  (1)
 write checkpoint data to                       : Al.check
 type of calculation                            : single point energy
 stress calculation                             : off
 density difference calculation                 : off
 electron localisation func (ELF) calculation   : off
 Hirshfeld analysis                             : off
 unlimited duration calculation
 timing information                             : on
 write final potential to formatted file        : off
 write final density to formatted file          : off
 write BibTeX reference list                    : on
 write OTFG pseudopotential files               : on
 checkpoint writing                             : both castep_bin and check files

 output         length unit                     : A
 output           mass unit                     : amu
 output           time unit                     : ps
 output         charge unit                     : e
 output           spin unit                     : hbar/2
 output         energy unit                     : eV
 output          force unit                     : eV/A
 output       velocity unit                     : A/ps
 output       pressure unit                     : GPa
 output     inv_length unit                     : 1/A
 output      frequency unit                     : cm-1
 output force constant unit                     : eV/A**2
 output         volume unit                     : A**3
 output   IR intensity unit                     : (D/A)**2/amu
 output         dipole unit                     : D
 output         efield unit                     : eV/A/e
 output        entropy unit                     : J/mol/K

 wavefunctions paging                           : none
 random number generator seed                   : randomised (185014688)
 data distribution                              : optimal for this architecture
 optimization strategy                          : maximize speed(+++)

 *********************** Exchange-Correlation Parameters ***********************

 using functional                               : Perdew Burke Ernzerhof
 relativistic treatment                         : Koelling-Harmon
 DFT+D: Semi-empirical dispersion correction    : off

 ************************* Pseudopotential Parameters **************************

 pseudopotential representation                 : reciprocal space
 <beta|phi> representation                      : reciprocal space
 spin-orbit coupling                            : off

 **************************** Basis Set Parameters *****************************

 plane wave basis set cut-off                   :   600.0000   eV
 size of standard grid                          :     1.7500
 size of   fine   gmax                          :    21.9610   1/A
 finite basis set correction                    : none

 **************************** Electronic Parameters ****************************

 number of  electrons                           :  12.00
 net charge of system                           :  0.000
 treating system as non-spin-polarized
 number of bands                                :         10

 ********************* Electronic Minimization Parameters **********************

 Method: Treating system as metallic with density mixing treatment of electrons,
         and number of  SD  steps               :          1
         and number of  CG  steps               :          4

 total energy / atom convergence tol.           : 0.1000E-04   eV
 eigen-energy convergence tolerance             : 0.1000E-05   eV
 max force / atom convergence tol.              : ignored
 convergence tolerance window                   :          3   cycles
 max. number of SCF cycles                      :       1000
 number of fixed-spin iterations                :         10
 smearing scheme                                : Gaussian
 smearing width                                 : 0.2000       eV
 Fermi energy convergence tolerance             : 0.2721E-13   eV
 periodic dipole correction                     : NONE

 ************************** Density Mixing Parameters **************************

 density-mixing scheme                          : Linear
 charge density mixing amplitude                : 0.8000
 cut-off energy for mixing                      :  600.0       eV

 *********************** Population Analysis Parameters ************************

 Population analysis with cutoff                :  3.000       A

                                      Unit Cell
        Real Lattice(A)                      Reciprocal Lattice(1/A)
   4.0000000   0.0000000   0.0000000        1.5707963  -0.0000000  -0.0000000
   0.0000000   4.0000000   0.0000000        0.0000000   1.5707963  -0.0000000
   0.0000000   0.0000000   4.0000000        0.0000000   0.0000000   1.5707963

                       Lattice parameters(A)       Cell Angles
                    a =    4.000000          alpha =   90.000000
                    b =    4.000000          beta  =   90.000000
                    c =    4.000000          gamma =   90.000000

                       Current cell volume =   64.000000       A**3

                                     Cell Contents
                         Total number of ions in cell =    4
                      Total number of species in cell =    1
                        Max number of any one species =    4

            x  Element    Atom        Fractional coordinates of atoms  x
            x            Number           u          v          w      x
            x  Al           1         0.000000   0.000000   0.000000   x
            x  Al           2         0.500000   0.500000   0.000000   x
            x  Al           3         0.500000   0.000000   0.500000   x
            x  Al           4         0.000000   0.500000   0.500000   x

                         No user defined ionic velocities

                                   Details of Species

                               Mass of species in AMU
                                    Al   26.9815400

                          Electric Quadrupole Moment (Barn)
                                    Al    0.1466000 Isotope 27

                          Files used for pseudopotentials:
                                    Al 3|2.0|4|4|5|30:31:32

                              k-Points For BZ Sampling
                       MP grid size for SCF calculation is  4  4  4
                            with an offset of   0.000  0.000  0.000
                       Number of kpoints used =            32

                               Symmetry and Constraints

                      Cell is a supercell containing 4 primitive cells
                      Maximum deviation from symmetry =  0.00000         ANG

         There are no symmetry operations specified or generated for this cell
                      Number of ionic constraints     =           3
                      Point group of crystal =     1: C1, 1, 1
                      Space group of crystal =   225: Fm-3m, -F 4 2 3

                         Centre of mass is constrained
             Set iprint > 1 for details of linear ionic constraints

                         Number of cell constraints= 0
                         Cell constraints are:  1 2 3 4 5 6

                         External pressure/stress (GPa)
                          0.00000   0.00000   0.00000
                                    0.00000   0.00000
                                              0.00000

Final energy, E             =  -443.2394007592     eV
Final free energy (E-TS)    =  -443.3325345254     eV
(energies not corrected for finite basis set)

NB est. 0K energy (E-0.5TS)      =  -443.2859676423     eV

[...]

 *********************** Forces ***********************
 *            Cartesian components (eV/A)             *
 *                   x            y            z      *
 * Al        1      0.00117     -0.00140      0.00123 *
 * Al        2     -0.00112      0.00130      0.00134 *
 * Al        3     -0.00124     -0.00129     -0.00132 *
 * Al        4      0.00118      0.00139     -0.00125 *

 Pseudo atomic calculation performed for Al 3s2 3p1

 Converged in 14 iterations to a total energy of -107.1305 eV

Charge spilling parameter for spin component 1 = 2.08%

     Atomic Populations (Mulliken)
Species   Ion     s      p      d      f     Total  Charge (e)
  Al       1     1.07   1.93   0.00   0.00   3.00     0.00
  Al       2     1.07   1.93   0.00   0.00   3.00    -0.00
  Al       3     1.07   1.93   0.00   0.00   3.00    -0.00
  Al       4     1.07   1.93   0.00   0.00   3.00    -0.00

            Bond              Population      Length (A)
         Al 3 -- Al 4              0.56        2.82843
         Al 2 -- Al 4              0.55        2.82843
         Al 2 -- Al 3              0.56        2.82843
         Al 1 -- Al 4              0.55        2.82843
         Al 1 -- Al 3              0.56        2.82843
         Al 1 -- Al 2              0.56        2.82843

Writing analysis data to Al.castep_bin

Writing model to Al.check

 A BibTeX formatted list of references used in this run has been written to
 Al.bib

Initialisation time =     11.91 s
Calculation time    =     29.10 s
Finalisation time   =      0.43 s
Total time          =     41.44 s

Overall parallel efficiency rating: Poor (46%)

Data was distributed by:-
k-point (4-way); efficiency rating: Poor (47%)

Parallel notes:
1) Calculation only took 41.0 s, so efficiency estimates may be inaccurate.