 Run started: Fri, 03 Mar 2017 16:35:33 +0000

 Atomic calculation performed for C: 1s2 2s2 2p2

 Converged in 56 iterations to an ae energy of -1018.807 eV

   | Pseudopotential Report - Date of generation  3-03-2017   |
   | Element: C Ionic charge:  4.00 Level of theory: LDA      |
   | Atomic Solver: Koelling-Harmon                           |
   |               Reference Electronic Structure             |
   |         Orbital         Occupation         Energy        |
   |            2s              2.000           -0.501        |
   |            2p              2.000           -0.199        |
   |                 Pseudopotential Definition               |
   |        Beta     l      e      Rc     scheme   norm       |
   |          1      0   -0.501   1.395     qc      0         |
   |          2      0    0.250   1.395     qc      0         |
   |          3      1   -0.199   1.395     qc      0         |
   |          4      1    0.250   1.395     qc      0         |
   |         loc     2    0.000   1.395     pn      0         |
   | Augmentation charge Rinner = 0.983                       |
   | Partial core correction Rc = 0.983                       |
   | "2|1.4|10|12|13|20:21(qc=7)"                             |
   |      Author: Chris J. Pickard, Cambridge University      |

 Pseudo atomic calculation performed for C 2s2 2p2

 Converged in 15 iterations to a total energy of -148.1532 eV

 Calculation parallelised over 4 processes.
 Data is distributed by G-vector(2-way) and k-point(2-way)

 ************************************ Title ************************************

 ***************************** General Parameters ******************************

 output verbosity                               : normal  (1)
 write checkpoint data to                       : graphene.check
 type of calculation                            : single point energy
 stress calculation                             : off
 density difference calculation                 : off
 electron localisation func (ELF) calculation   : off
 Hirshfeld analysis                             : off
 unlimited duration calculation
 timing information                             : on
 write final potential to formatted file        : off
 write final density to formatted file          : off
 write BibTeX reference list                    : on
 write OTFG pseudopotential files               : on
 checkpoint writing                             : both castep_bin and check files

 output         length unit                     : A
 output           mass unit                     : amu
 output           time unit                     : ps
 output         charge unit                     : e
 output           spin unit                     : hbar/2
 output         energy unit                     : eV
 output          force unit                     : eV/A
 output       velocity unit                     : A/ps
 output       pressure unit                     : GPa
 output     inv_length unit                     : 1/A
 output      frequency unit                     : cm-1
 output force constant unit                     : eV/A**2
 output         volume unit                     : A**3
 output   IR intensity unit                     : (D/A)**2/amu
 output         dipole unit                     : D
 output         efield unit                     : eV/A/e
 output        entropy unit                     : J/mol/K

 wavefunctions paging                           : none
 random number generator seed                   : randomised (163533570)
 data distribution                              : optimal for this architecture
 optimization strategy                          : maximize speed(+++)

 *********************** Exchange-Correlation Parameters ***********************

 using functional                               : Local Density Approximation
 relativistic treatment                         : Koelling-Harmon
 DFT+D: Semi-empirical dispersion correction    : off

 ************************* Pseudopotential Parameters **************************

 pseudopotential representation                 : reciprocal space
 <beta|phi> representation                      : reciprocal space
 spin-orbit coupling                            : off

 **************************** Basis Set Parameters *****************************

 plane wave basis set cut-off                   :   700.0000   eV
 size of standard grid                          :     2.0000
 size of   fine   gmax                          :    27.1093   1/A
 finite basis set correction                    : none

 **************************** Electronic Parameters ****************************

 number of  electrons                           :  8.000
 net charge of system                           :  0.000
 treating system as non-spin-polarized
 number of bands                                :          8

 ********************* Electronic Minimization Parameters **********************

 Method: Treating system as metallic with density mixing treatment of electrons,
         and number of  SD  steps               :          1
         and number of  CG  steps               :          4

 total energy / atom convergence tol.           : 0.1000E-04   eV
 eigen-energy convergence tolerance             : 0.1000E-05   eV
 max force / atom convergence tol.              : ignored
 convergence tolerance window                   :          3   cycles
 max. number of SCF cycles                      :        200
 number of fixed-spin iterations                :         10
 smearing scheme                                : Gaussian
 smearing width                                 : 0.2000       eV
 Fermi energy convergence tolerance             : 0.2721E-13   eV
 periodic dipole correction                     : NONE

 ************************** Density Mixing Parameters **************************

 density-mixing scheme                          : Broyden
 max. length of mixing history                  :         20
 charge density mixing amplitude                : 0.8000
 cut-off energy for mixing                      :  700.0       eV

 *********************** Population Analysis Parameters ************************

 Population analysis with cutoff                :  3.000       A

                                      Unit Cell
        Real Lattice(A)                      Reciprocal Lattice(1/A)
   1.2328595  -2.1353753   0.0000000        2.5482163  -1.4712134   0.0000000
   1.2328595   2.1353753   0.0000000        2.5482163   1.4712134   0.0000000
   0.0000000   0.0000000  20.0000000        0.0000000   0.0000000   0.3141593

                       Lattice parameters(A)       Cell Angles
                    a =    2.465719          alpha =   90.000000
                    b =    2.465719          beta  =   90.000000
                    c =   20.000000          gamma =  120.000000

                       Current cell volume =  105.304709       A**3

                                     Cell Contents
                         Total number of ions in cell =    2
                      Total number of species in cell =    1
                        Max number of any one species =    2

            x  Element    Atom        Fractional coordinates of atoms  x
            x            Number           u          v          w      x
            x  C            1         0.000000   0.000000   0.000000   x
            x  C            2         0.333333   0.666667   0.000000   x

                         No user defined ionic velocities

                                   Details of Species

                               Mass of species in AMU
                                    C   12.0107000

                          Electric Quadrupole Moment (Barn)
                                    C    0.0332700 Isotope 11

                          Files used for pseudopotentials:
                                    C 2|1.4|10|12|13|20:21(qc=7)

                              k-Points For BZ Sampling
                       MP grid size for SCF calculation is  5  5  1
                            with an offset of   0.000  0.000  0.000
                       Number of kpoints used =             5

                               Symmetry and Constraints

                      Maximum deviation from symmetry = 0.376003E-14     ANG

                      Number of symmetry operations   =          24
                      Number of ionic constraints     =           3
                      Point group of crystal =    27: D6h, 6/mmm, 6/m 2/m 2/m
                      Space group of crystal =   191: P6/mmm, -P 6 2

             Set iprint > 1 for details on symmetry rotations/translations

                         Centre of mass is constrained
             Set iprint > 1 for details of linear ionic constraints

                         Number of cell constraints= 4
                         Cell constraints are:  1 1 3 0 0 0

                         External pressure/stress (GPa)
                          0.00000   0.00000   0.00000
                                    0.00000   0.00000
                                              0.00000

Final energy, E             =  -316.5016166559     eV
Final free energy (E-TS)    =  -316.5016166559     eV
(energies not corrected for finite basis set)

NB est. 0K energy (E-0.5TS)      =  -316.5016166559     eV

Writing analysis data to graphene.castep_bin

Writing model to graphene.check

 ***************** Symmetrised Forces *****************
 *            Cartesian components (eV/A)             *
 *                   x            y            z      *
 * C         1     -0.00000     -0.00000     -0.00000 *
 * C         2      0.00000      0.00000      0.00000 *

 Pseudo atomic calculation performed for C 2s2 2p2

 Converged in 15 iterations to a total energy of -148.1532 eV

Charge spilling parameter for spin component 1 = 1.04%

     Atomic Populations (Mulliken)
Species   Ion     s      p      d      f     Total  Charge (e)
  C        1     1.03   2.97   0.00   0.00   4.00     0.00
  C        2     1.03   2.97   0.00   0.00   4.00     0.00

            Bond              Population      Length (A)
          C 1 -- C 2               3.05        1.42358

Writing analysis data to graphene.castep_bin

Writing model to graphene.check

 A BibTeX formatted list of references used in this run has been written to
 graphene.bib

Initialisation time =      5.02 s
Calculation time    =     33.79 s
Finalisation time   =      0.12 s
Total time          =     38.92 s

Overall parallel efficiency rating: Mediocre (56%)

Data was distributed by:-
G-vector (2-way); efficiency rating: Satisfactory (63%)
k-point (2-way); efficiency rating: Very good (84%)

Parallel notes:
1) Calculation only took 38.8 s, so efficiency estimates may be inaccurate.